(set-logic ALL)
(declare-fun seed0_T_1 () Int)
(declare-fun seed0_T_2 () Bool)
(declare-fun seed0_T_3 () Bool)
(declare-fun seed0_var_0xINPUT_208592 () String)
(assert (and (or (>= seed0_T_1 (str.len seed0_var_0xINPUT_208592)) (and (str.< (str.++ seed0_var_0xINPUT_208592 "t0rjQOIf438WiyH1") (str.++ seed0_var_0xINPUT_208592 "SgkqV6O3ZwQRlX")) (str.<= (str.++ seed0_var_0xINPUT_208592 "LsXDZRboJhSAeIfYOWd3") (str.++ seed0_var_0xINPUT_208592 "K")))) (or (= seed0_T_2 (= seed0_T_1 0)) (or (< (- seed0_T_1 677) (mod seed0_T_1 seed0_T_1)) (< (+ seed0_T_1 (- 892)) (- seed0_T_1 (- 935))))) (or (= seed0_T_3 (not seed0_T_2)) (not (> (- seed0_T_1 (- 240)) (* seed0_T_1 seed0_T_1)))) (or seed0_T_3 (or (< (mod seed0_T_1 seed0_T_1) (div seed0_T_1 seed0_T_1)) (<= (+ seed0_T_1 425) (* seed0_T_1 seed0_T_1))))))
(check-sat)
(exit)